certificates/rado_a22_c20_N71.cnf
c Rad2 upper bound instance: x1 + 22*x2 - x3 = 20, interval [1,71]
p cnf 71 288
1 3 0
-1 -3 0
1 2 25 0
-1 -2 -25 0
1 3 47 0
-1 -3 -47 0
1 4 69 0
-1 -4 -69 0
1 2 4 0
-1 -2 -4 0
2 26 0
-2 -26 0
2 3 48 0
-2 -3 -48 0
2 4 70 0
-2 -4 -70 0
1 3 5 0
-1 -3 -5 0
2 3 27 0
-2 -3 -27 0
3 49 0
-3 -49 0
3 4 71 0
-3 -4 -71 0
1 4 6 0
-1 -4 -6 0
2 4 28 0
-2 -4 -28 0
3 4 50 0
-3 -4 -50 0
1 5 7 0
-1 -5 -7 0
2 5 29 0
-2 -5 -29 0
3 5 51 0
-3 -5 -51 0
1 6 8 0
-1 -6 -8 0
2 6 30 0
-2 -6 -30 0
3 6 52 0
-3 -6 -52 0
1 7 9 0
-1 -7 -9 0
2 7 31 0
-2 -7 -31 0
3 7 53 0
-3 -7 -53 0
1 8 10 0
-1 -8 -10 0
2 8 32 0
-2 -8 -32 0
3 8 54 0
-3 -8 -54 0
1 9 11 0
-1 -9 -11 0
2 9 33 0
-2 -9 -33 0
3 9 55 0
-3 -9 -55 0
1 10 12 0
-1 -10 -12 0
2 10 34 0
-2 -10 -34 0
3 10 56 0
-3 -10 -56 0
1 11 13 0
-1 -11 -13 0
2 11 35 0
-2 -11 -35 0
3 11 57 0
-3 -11 -57 0
1 12 14 0
-1 -12 -14 0
2 12 36 0
-2 -12 -36 0
3 12 58 0
-3 -12 -58 0
1 13 15 0
-1 -13 -15 0
2 13 37 0
-2 -13 -37 0
3 13 59 0
-3 -13 -59 0
1 14 16 0
-1 -14 -16 0
2 14 38 0
-2 -14 -38 0
3 14 60 0
-3 -14 -60 0
1 15 17 0
-1 -15 -17 0
2 15 39 0
-2 -15 -39 0
3 15 61 0
-3 -15 -61 0
1 16 18 0
-1 -16 -18 0
2 16 40 0
-2 -16 -40 0
3 16 62 0
-3 -16 -62 0
1 17 19 0
-1 -17 -19 0
2 17 41 0
-2 -17 -41 0
3 17 63 0
-3 -17 -63 0
1 18 20 0
-1 -18 -20 0
2 18 42 0
-2 -18 -42 0
3 18 64 0
-3 -18 -64 0
1 19 21 0
-1 -19 -21 0
2 19 43 0
-2 -19 -43 0
3 19 65 0
-3 -19 -65 0
1 20 22 0
-1 -20 -22 0
2 20 44 0
-2 -20 -44 0
3 20 66 0
-3 -20 -66 0
1 21 23 0
-1 -21 -23 0
2 21 45 0
-2 -21 -45 0
3 21 67 0
-3 -21 -67 0
1 22 24 0
-1 -22 -24 0
2 22 46 0
-2 -22 -46 0
3 22 68 0
-3 -22 -68 0
1 23 25 0
-1 -23 -25 0
2 23 47 0
-2 -23 -47 0
3 23 69 0
-3 -23 -69 0
1 24 26 0
-1 -24 -26 0
2 24 48 0
-2 -24 -48 0
3 24 70 0
-3 -24 -70 0
1 25 27 0
-1 -25 -27 0
2 25 49 0
-2 -25 -49 0
3 25 71 0
-3 -25 -71 0
1 26 28 0
-1 -26 -28 0
2 26 50 0
-2 -26 -50 0
1 27 29 0
-1 -27 -29 0
2 27 51 0
-2 -27 -51 0
1 28 30 0
-1 -28 -30 0
2 28 52 0
-2 -28 -52 0
1 29 31 0
-1 -29 -31 0
2 29 53 0
-2 -29 -53 0
1 30 32 0
-1 -30 -32 0
2 30 54 0
-2 -30 -54 0
1 31 33 0
-1 -31 -33 0
2 31 55 0
-2 -31 -55 0
1 32 34 0
-1 -32 -34 0
2 32 56 0
-2 -32 -56 0
1 33 35 0
-1 -33 -35 0
2 33 57 0
-2 -33 -57 0
1 34 36 0
-1 -34 -36 0
2 34 58 0
-2 -34 -58 0
1 35 37 0
-1 -35 -37 0
2 35 59 0
-2 -35 -59 0
1 36 38 0
-1 -36 -38 0
2 36 60 0
-2 -36 -60 0
1 37 39 0
-1 -37 -39 0
2 37 61 0
-2 -37 -61 0
1 38 40 0
-1 -38 -40 0
2 38 62 0
-2 -38 -62 0
1 39 41 0
-1 -39 -41 0
2 39 63 0
-2 -39 -63 0
1 40 42 0
-1 -40 -42 0
2 40 64 0
-2 -40 -64 0
1 41 43 0
-1 -41 -43 0
2 41 65 0
-2 -41 -65 0
1 42 44 0
-1 -42 -44 0
2 42 66 0
-2 -42 -66 0
1 43 45 0
-1 -43 -45 0
2 43 67 0
-2 -43 -67 0
1 44 46 0
-1 -44 -46 0
2 44 68 0
-2 -44 -68 0
1 45 47 0
-1 -45 -47 0
2 45 69 0
-2 -45 -69 0
1 46 48 0
-1 -46 -48 0
2 46 70 0
-2 -46 -70 0
1 47 49 0
-1 -47 -49 0
2 47 71 0
-2 -47 -71 0
1 48 50 0
-1 -48 -50 0
1 49 51 0
-1 -49 -51 0
1 50 52 0
-1 -50 -52 0
1 51 53 0
-1 -51 -53 0
1 52 54 0
-1 -52 -54 0
1 53 55 0
-1 -53 -55 0
1 54 56 0
-1 -54 -56 0
1 55 57 0
-1 -55 -57 0
1 56 58 0
-1 -56 -58 0
1 57 59 0
-1 -57 -59 0
1 58 60 0
-1 -58 -60 0
1 59 61 0
-1 -59 -61 0
1 60 62 0
-1 -60 -62 0
1 61 63 0
-1 -61 -63 0
1 62 64 0
-1 -62 -64 0
1 63 65 0
-1 -63 -65 0
1 64 66 0
-1 -64 -66 0
1 65 67 0
-1 -65 -67 0
1 66 68 0
-1 -66 -68 0
1 67 69 0
-1 -67 -69 0
1 68 70 0
-1 -68 -70 0
1 69 71 0
-1 -69 -71 0
