certificates/rado_a22_c20_N71.drat
-69 -71 0
d -69 -1 -71 0
23 25 69 0
-3 -71 0
-71 0
69 0
3 0
-1 0
-49 0
-23 0
51 0
47 0
25 0
21 0
-5 0
-67 0
7 0
65 0
-53 0
-19 0
55 0
17 0
-9 0
-63 0
11 0
61 0
-57 0
-15 0
59 0
13 0
0
